(declare-fun PCTEMP_LHS_6 () String)
(declare-fun T0_15 () String)
(declare-fun T0_18 () String)
(declare-fun T0_2 () String)
(declare-fun T0_4 () String)
(declare-fun T0_6 () String)
(declare-fun T1_15 () String)
(declare-fun T1_18 () String)
(declare-fun T1_2 () String)
(declare-fun T1_23 () String)
(declare-fun T1_4 () String)
(declare-fun T1_6 () String)
(declare-fun T2_15 () String)
(declare-fun T2_18 () String)
(declare-fun T2_2 () String)
(declare-fun T2_23 () String)
(declare-fun T2_4 () String)
(declare-fun T2_6 () String)
(declare-fun T3_15 () String)
(declare-fun T3_18 () String)
(declare-fun T3_2 () String)
(declare-fun T3_23 () String)
(declare-fun T3_4 () String)
(declare-fun T3_6 () String)
(declare-fun T4_15 () String)
(declare-fun T4_18 () String)
(declare-fun T4_2 () String)
(declare-fun T4_4 () String)
(declare-fun T4_6 () String)
(declare-fun T5_15 () String)
(declare-fun T5_18 () String)
(declare-fun T5_2 () String)
(declare-fun T5_4 () String)
(declare-fun T5_6 () String)
(declare-fun V () String)
(declare-fun W () String)
(declare-fun X () String)
(declare-fun Z () String)
(declare-fun Y () String)
(assert (= (str.++  T4_2 "__utma=169413169." T3_2) (str.++ T4_15 "__utmb=169413169" T3_15)))
(assert (= (str.++  T4_4 "__utmb=169413169" T3_4) (str.++  T4_2 "__utma=169413169." T3_2)))
(assert (= (str.++  T4_6 "__utmc=169413169" T3_6) (str.++  T4_4 "__utmb=169413169" T3_4)))
(assert (= (str.++  T0_18 T4_18 ";" T3_18) (str.++  T4_6 "__utmc=169413169" T3_6)))
(assert (= (str.++  T1_23 "-" T3_23) (str.++  T0_18 T4_18 ";" T3_18)))
(check-sat)
